156
0 148 131 72 93 70 27 108 54 150 
24 64 7 61 117 91 45 23 20 59 
19 18 100 41 104 121 105 68 136 118 
80 130 110 151 30 73 112 153 35 123 
134 2 34 142 147 66 28 17 81 60 
56 149 6 55 75 71 143 31 145 98 
144 3 57 133 107 65 69 58 94 78 
141 44 52 38 137 33 50 111 138 129 
96 14 32 97 43 154 16 106 47 126 
101 46 89 48 77 99 25 119 82 37 
15 67 135 115 10 109 124 125 74 63 
9 114 90 22 85 95 87 40 51 103 
120 83 88 113 146 102 116 12 26 127 
36 39 122 8 140 76 29 42 49 5 
92 86 152 132 139 1 53 155 62 128 
11 4 13 84 79 21 
